W=6;
H=5;

MAX_TIME=18;
MAX_TRACKS=16;

TARGET=(3,6);

TRAINS=[(3,2,RIGHT),(5,2,RIGHT)];
DECOYS=[];

INIT_POS=[
(2,4,CORNER_DR),
(3,2,STRAIGHT_RL),
(3,4,DSWITCH_R_L_T),
(3,5,DSWITCH_R_L_D),
(3,6,STRAIGHT_RL),
(4,5,CORNER_TR),
(5,2,STRAIGHT_RL),
];
TUNNEL_PAIRS=[];

GATES=[];
ACTIVATIONS=[
(2,4,2),
(4,5,1),
];

DSWITCHES=[
(3,4,2),
(3,5,1),
];
STATIONS=[];
